0011111111000000
0010000000100000
0000001000100000
0000000000100000
0001110000100000
0011011111100000
0000000000000000
0000000000000000
0000000000000000
0000000000000000
0000000000000000
0000000000000000
0000000000000000
0000000000000000
0000000000000000
0000000000000000
